job_count = 24 ;
duration = [|27, 3, 10, 6|8, 16, 18, 1|18, 4, 9, 8|30, 12, 12, 5|24, 6, 2, 5|31, 22, 10, 5|26, 19, 3, 8|21, 10, 3, 4|6, 14, 15, 4|25, 9, 10, 5|32, 22, 11, 9|21, 3, 11, 6|15, 5, 10, 8|7, 26, 14, 1|17, 27, 19, 7|14, 13, 13, 9|37, 3, 6, 4|29, 8, 19, 6|24, 18, 17, 6|39, 4, 19, 7|4, 20, 8, 4|9, 28, 13, 4|22, 14, 15, 5|24, 28, 16, 4|] ;
machine_count = 4 ;
cost = [|16, 21, 31, 54|16, 29, 57, 65|10, 23, 44, 45|17, 24, 49, 74|12, 20, 56, 76|14, 39, 51, 63|16, 30, 33, 60|15, 23, 38, 78|14, 21, 53, 62|11, 33, 43, 41|15, 30, 43, 51|11, 37, 41, 46|10, 22, 32, 51|17, 22, 53, 66|11, 39, 59, 78|17, 30, 50, 44|14, 21, 51, 67|18, 29, 54, 73|19, 32, 52, 49|10, 22, 38, 62|16, 29, 59, 77|12, 25, 35, 71|10, 21, 53, 60|19, 35, 32, 41|] ;
deadline = [50, 50, 50, 50, 50, 50, 50, 50, 50, 50, 50, 50, 50, 50, 50, 50, 50, 50, 50, 50, 50, 50, 50, 50] ;
release = [0, 0, 0, 0, 0, 0, 0, 0, 0, 0, 0, 0, 0, 0, 0, 0, 0, 0, 0, 0, 0, 0, 0, 0] ;
resource = [|2, 2, 2, 2|4, 4, 4, 4|6, 6, 6, 6|5, 5, 5, 5|1, 1, 1, 1|3, 3, 3, 3|6, 6, 6, 6|9, 9, 9, 9|3, 3, 3, 3|9, 9, 9, 9|1, 1, 1, 1|9, 9, 9, 9|3, 3, 3, 3|7, 7, 7, 7|4, 4, 4, 4|6, 6, 6, 6|9, 9, 9, 9|5, 5, 5, 5|4, 4, 4, 4|5, 5, 5, 5|2, 2, 2, 2|5, 5, 5, 5|1, 1, 1, 1|3, 3, 3, 3|] ;
capacities = [10, 10, 10, 10] ;
